p tdp 20 88
1 3
1 4
1 5
1 9
1 18
1 20
2 3
2 4
2 8
2 9
2 11
2 13
2 15
2 18
2 20
3 5
3 7
3 8
3 12
3 13
3 14
3 15
3 16
3 18
3 19
4 5
4 6
4 7
4 12
4 14
4 15
4 18
4 19
5 7
5 13
5 17
5 19
6 7
6 12
6 13
6 14
6 17
6 20
7 8
7 9
7 11
7 12
7 17
7 18
7 20
8 11
8 12
8 17
9 10
9 11
9 12
9 13
9 14
9 15
10 14
10 15
10 16
10 19
10 20
11 14
11 15
11 16
11 19
11 20
12 13
12 14
12 15
12 17
12 20
13 16
13 17
13 18
14 15
14 16
14 19
15 17
15 18
15 19
16 17
16 18
17 20
18 20
19 20
